Route #1: 29 9
Route #2: 33 63 68 138 93 55 121 112 2 71
Route #3: 11 7 36
Route #4: 99 92 150 106 35 67 32 101 62 27 34
Route #5: 6 13
Route #6: 130 146 16 143
Route #7: 147 65 131 111 141 86 60 40 23
Route #8: 48 97 118 151 43 4 51 59 70 100 137 91 119 140
Route #9: 129 49 109 28 30
Route #10: 21
Route #11: 83 8
Route #12: 42 25 95
Route #13: 56 132 96 22 3
Route #14: 84 69 58 26 75 115 82 64 57 53
Route #15: 88 41 39 14 110 105 74
Route #16: 77 135 81 127 18 114 76 85 50 98 148 45 117
Route #17: 12 17 104 124
Route #18: 90 128 73 142 54 44 72 20 103 52 37
Route #19: 145 113 123 136 79 24 80 61 78 120 107
Route #20: 149 15 125 5 87
Route #21: 31 126 122 10
Route #22: 38 134 94 108 46 133 19 116 152
Route #23: 102 47 1 89 66 144 139
Cost 21303.000000